unsat
(:eliminated-vars    1
 :max-memory         18.16
 :memory             18.06
 :nlsat-conflicts    2
 :nlsat-propagations 7
 :nlsat-stages       2
 :num-allocs         45795
 :rlimit-count       5105
 :time               0.00
 :total-time         0.01)
